# avogadro generated ORCA input file 
# Basic Mode
# Molecular orbital of H2
! BP OPT STO-3G
! Normalprint
%output
Print[P_Basis]2
Print[P_MOs]1
end

* xyz 0 1
   H        2.32361       -0.24519       -0.01651
   H        2.75093       -0.46081       -0.53821
*

